NAME: concorde10
TYPE: TSP
COMMENT: Generated by CCutil_writetsplib
COMMENT: Write called for by Concorde GUI
DIMENSION: 10
EDGE_WEIGHT_TYPE: EUC_2D
NODE_COORD_SECTION
1 22.549020 89.029536
2 23.039216 81.434599
3 30.392157 79.324895
4 40.277778 80.379747

